\ This file has been generated by DOcplex
\ ENCODING=ISO-8859-1
\Problem name: Market Sharing Problem

Minimize
 obj: s_plus_0 + s_plus_1 + s_minus_0 + s_minus_1
Subject To
 demand_constraint_0: 44 x_0 + 47 x_1 + 64 x_2 + 67 x_3 + 67 x_4 + 9 x_5
                      + 83 x_6 + 21 x_7 + 36 x_8 + 87 x_9 + s_plus_0 - s_minus_0
                       = 262
 demand_constraint_1: 70 x_0 + 88 x_1 + 88 x_2 + 12 x_3 + 58 x_4 + 65 x_5
                      + 39 x_6 + 87 x_7 + 46 x_8 + 88 x_9 + s_plus_1 - s_minus_1
                       = 320

Bounds
 0 <= x_0 <= 1
 0 <= x_1 <= 1
 0 <= x_2 <= 1
 0 <= x_3 <= 1
 0 <= x_4 <= 1
 0 <= x_5 <= 1
 0 <= x_6 <= 1
 0 <= x_7 <= 1
 0 <= x_8 <= 1
 0 <= x_9 <= 1
       s_plus_0 <= 525
       s_plus_1 <= 641
       s_minus_0 <= 525
       s_minus_1 <= 641

Binaries
 x_0 x_1 x_2 x_3 x_4 x_5 x_6 x_7 x_8 x_9

Generals
 s_plus_0 s_plus_1 s_minus_0 s_minus_1
End
